nohup: ignoring input
miplib2017_binary-small
symmetric
./result/miplib2017/miplib2017_purebinary_solved.txt
original problem has 2025 variables (1800 bin, 0 int, 0 impl, 225 cont) and 230 constraints
10teams


miplib2017_binary-0
Number of variables 2025
Number of binary variables 1800
* Model status: sollimit
* Solving time: 4.635721
* number of sol :  1
* Model status: optimal
* Solving time: 9.957786
* number of sol :  1
original problem has 200 variables (200 bin, 0 int, 0 impl, 0 cont) and 17013 constraints
2club200v15p5scn


miplib2017_binary-0
Number of variables 200
Number of binary variables 200
* Model status: sollimit
* Solving time: 0.095662
* number of sol :  1
* Model status: nodelimit
* Solving time: 21.749163
* number of sol :  2
wrote problem to file /home/liudefen/projects/ML4LocalBranch_extend/data/generated_instances/miplib2017_binary/-small/transformedmodel/miplib2017_binary-0_transformed.cip
original problem has 200 variables (200 bin, 0 int, 0 impl, 0 cont) and 17013 constraints
-27.0
-27.0
original problem has 10772 variables (10771 bin, 0 int, 0 impl, 1 cont) and 12050 constraints
30_70_45_05_100


miplib2017_binary-1
Number of variables 10772
Number of binary variables 10771
* Model status: sollimit
* Solving time: 0.075583
* number of sol :  1
* Model status: nodelimit
* Solving time: 132.716014
* number of sol :  4
wrote problem to file /home/liudefen/projects/ML4LocalBranch_extend/data/generated_instances/miplib2017_binary/-small/transformedmodel/miplib2017_binary-1_transformed.cip
original problem has 10772 variables (10771 bin, 0 int, 0 impl, 1 cont) and 12050 constraints
12.0
12.0
original problem has 10976 variables (10975 bin, 0 int, 0 impl, 1 cont) and 12526 constraints
30_70_45_095_100


miplib2017_binary-2
Number of variables 10976
Number of binary variables 10975
* Model status: sollimit
* Solving time: 0.11071099999999999
* number of sol :  1
* Model status: optimal
* Solving time: 124.683225
* number of sol :  3
original problem has 10990 variables (10989 bin, 0 int, 0 impl, 1 cont) and 12471 constraints
30_70_45_095_98


miplib2017_binary-2
Number of variables 10990
Number of binary variables 10989
* Model status: sollimit
* Solving time: 0.09422599999999999
* number of sol :  1
* Model status: optimal
* Solving time: 99.957244
* number of sol :  4
original problem has 12675 variables (12675 bin, 0 int, 0 impl, 0 cont) and 11893 constraints
ab51-40-100


miplib2017_binary-2
Number of variables 12675
Number of binary variables 12675
* Model status: sollimit
* Solving time: 2.216622
* number of sol :  1
* Model status: nodelimit
* Solving time: 11.148271
* number of sol :  7
wrote problem to file /home/liudefen/projects/ML4LocalBranch_extend/data/generated_instances/miplib2017_binary/-small/transformedmodel/miplib2017_binary-2_transformed.cip
original problem has 12675 variables (12675 bin, 0 int, 0 impl, 0 cont) and 11893 constraints
-8931557659.0
-8931557659.0
original problem has 12812 variables (12812 bin, 0 int, 0 impl, 0 cont) and 12092 constraints
ab67-40-100


miplib2017_binary-3
Number of variables 12812
Number of binary variables 12812
* Model status: sollimit
* Solving time: 2.292686
* number of sol :  1
* Model status: nodelimit
* Solving time: 11.716851
* number of sol :  2
wrote problem to file /home/liudefen/projects/ML4LocalBranch_extend/data/generated_instances/miplib2017_binary/-small/transformedmodel/miplib2017_binary-3_transformed.cip
original problem has 12812 variables (12812 bin, 0 int, 0 impl, 0 cont) and 12092 constraints
-2135573378.0
-2135573378.0
original problem has 12622 variables (12622 bin, 0 int, 0 impl, 0 cont) and 11911 constraints
ab69-40-100


miplib2017_binary-4
Number of variables 12622
Number of binary variables 12622
* Model status: sollimit
* Solving time: 2.307028
* number of sol :  1
* Model status: nodelimit
* Solving time: 5.119687
* number of sol :  1
wrote problem to file /home/liudefen/projects/ML4LocalBranch_extend/data/generated_instances/miplib2017_binary/-small/transformedmodel/miplib2017_binary-4_transformed.cip
original problem has 12622 variables (12622 bin, 0 int, 0 impl, 0 cont) and 11911 constraints
0.0
0.0
original problem has 6689 variables (6689 bin, 0 int, 0 impl, 0 cont) and 6380 constraints
ab71-20-100


miplib2017_binary-5
Number of variables 6689
Number of binary variables 6689
* Model status: sollimit
* Solving time: 1.286738
* number of sol :  1
* Model status: nodelimit
* Solving time: 3.168883
* number of sol :  1
wrote problem to file /home/liudefen/projects/ML4LocalBranch_extend/data/generated_instances/miplib2017_binary/-small/transformedmodel/miplib2017_binary-5_transformed.cip
original problem has 6689 variables (6689 bin, 0 int, 0 impl, 0 cont) and 6380 constraints
0.0
0.0
original problem has 12370 variables (12370 bin, 0 int, 0 impl, 0 cont) and 11671 constraints
ab72-40-100


miplib2017_binary-6
Number of variables 12370
Number of binary variables 12370
* Model status: sollimit
* Solving time: 2.273393
* number of sol :  1
* Model status: nodelimit
* Solving time: 6.265824
* number of sol :  1
wrote problem to file /home/liudefen/projects/ML4LocalBranch_extend/data/generated_instances/miplib2017_binary/-small/transformedmodel/miplib2017_binary-6_transformed.cip
original problem has 12370 variables (12370 bin, 0 int, 0 impl, 0 cont) and 11671 constraints
0.0
0.0
original problem has 168974 variables (168974 bin, 0 int, 0 impl, 0 cont) and 167661 constraints
academictimetablebig


miplib2017_binary-7
Number of variables 168974
Number of binary variables 168974
* Model status: timelimit
* Solving time: 7200.022507
* number of sol :  0
* Model status: timelimit
* Solving time: 7200.016708
* number of sol :  0
original problem has 28926 variables (28926 bin, 0 int, 0 impl, 0 cont) and 23294 constraints
academictimetablesmall


miplib2017_binary-7
Number of variables 28926
Number of binary variables 28926
* Model status: timelimit
* Solving time: 7200.002675
* number of sol :  0
* Model status: timelimit
* Solving time: 7200.010521
* number of sol :  0
original problem has 1620 variables (1620 bin, 0 int, 0 impl, 0 cont) and 2520 constraints
acc-tight2


miplib2017_binary-7
Number of variables 1620
Number of binary variables 1620
* Model status: optimal
* Solving time: 21.428196
* number of sol :  1
* Model status: optimal
* Solving time: 17.701135999999998
* number of sol :  1
original problem has 1620 variables (1620 bin, 0 int, 0 impl, 0 cont) and 3285 constraints
acc-tight4


miplib2017_binary-7
Number of variables 1620
Number of binary variables 1620
* Model status: optimal
* Solving time: 317.789705
* number of sol :  1
* Model status: optimal
* Solving time: 161.059411
* number of sol :  1
original problem has 1339 variables (1339 bin, 0 int, 0 impl, 0 cont) and 3052 constraints
acc-tight5


miplib2017_binary-7
Number of variables 1339
Number of binary variables 1339
* Model status: optimal
* Solving time: 198.240514
* number of sol :  1
* Model status: optimal
* Solving time: 211.085089
* number of sol :  2
original problem has 10757 variables (10757 bin, 0 int, 0 impl, 0 cont) and 124 constraints
air03


miplib2017_binary-7
Number of variables 10757
Number of binary variables 10757
* Model status: sollimit
* Solving time: 0.16580899999999998
* number of sol :  1
* Model status: optimal
* Solving time: 1.373532
* number of sol :  3
solution value 0 violates bounds of <t_CL000693>[1,1] by 1
original problem has 8904 variables (8904 bin, 0 int, 0 impl, 0 cont) and 823 constraints
air04


miplib2017_binary-7
Number of variables 8904
Number of binary variables 8904
* Model status: sollimit
* Solving time: 33.098079
* number of sol :  1
* Model status: sollimit
* Solving time: 61.585902
* number of sol :  2
wrote problem to file /home/liudefen/projects/ML4LocalBranch_extend/data/generated_instances/miplib2017_binary/-small/transformedmodel/miplib2017_binary-7_transformed.cip
original problem has 8904 variables (8904 bin, 0 int, 0 impl, 0 cont) and 1069 constraints
56212.0
56212.0
original problem has 7195 variables (7195 bin, 0 int, 0 impl, 0 cont) and 426 constraints
air05


miplib2017_binary-8
Number of variables 7195
Number of binary variables 7195
* Model status: sollimit
* Solving time: 17.12224
* number of sol :  1
* Model status: sollimit
* Solving time: 37.384155
* number of sol :  2
wrote problem to file /home/liudefen/projects/ML4LocalBranch_extend/data/generated_instances/miplib2017_binary/-small/transformedmodel/miplib2017_binary-8_transformed.cip
original problem has 7195 variables (7195 bin, 0 int, 0 impl, 0 cont) and 714 constraints
27583.0
27583.0
original problem has 3283 variables (3283 bin, 0 int, 0 impl, 0 cont) and 1038 constraints
app2-1


miplib2017_binary-9
Number of variables 3283
Number of binary variables 3283
* Model status: sollimit
* Solving time: 0.045217
* number of sol :  1
* Model status: nodelimit
* Solving time: 1.279469
* number of sol :  100
wrote problem to file /home/liudefen/projects/ML4LocalBranch_extend/data/generated_instances/miplib2017_binary/-small/transformedmodel/miplib2017_binary-9_transformed.cip
original problem has 3283 variables (3283 bin, 0 int, 0 impl, 0 cont) and 1038 constraints
9647125.0
9647125.0
original problem has 1226 variables (1226 bin, 0 int, 0 impl, 0 cont) and 335 constraints
app2-2


miplib2017_binary-10
Number of variables 1226
Number of binary variables 1226
* Model status: sollimit
* Solving time: 0.016557
* number of sol :  1
* Model status: nodelimit
* Solving time: 0.200836
* number of sol :  100
wrote problem to file /home/liudefen/projects/ML4LocalBranch_extend/data/generated_instances/miplib2017_binary/-small/transformedmodel/miplib2017_binary-10_transformed.cip
original problem has 1226 variables (1226 bin, 0 int, 0 impl, 0 cont) and 335 constraints
53107625.0
53107625.0
original problem has 61152 variables (61152 bin, 0 int, 0 impl, 0 cont) and 60680 constraints
bab1


miplib2017_binary-11
Number of variables 61152
Number of binary variables 61152
* Model status: sollimit
* Solving time: 1385.427266
* number of sol :  1
* Model status: sollimit
* Solving time: 1291.921183
* number of sol :  2
wrote problem to file /home/liudefen/projects/ML4LocalBranch_extend/data/generated_instances/miplib2017_binary/-small/transformedmodel/miplib2017_binary-11_transformed.cip
original problem has 61152 variables (61152 bin, 0 int, 0 impl, 0 cont) and 22259 constraints
-211283.3195
-211283.3195
original problem has 147912 variables (147912 bin, 0 int, 0 impl, 0 cont) and 17245 constraints
bab2


miplib2017_binary-12
Number of variables 147912
Number of binary variables 147912
* Model status: sollimit
* Solving time: 4111.906914
* number of sol :  2
* Model status: sollimit
* Solving time: 5877.118572
* number of sol :  2
wrote problem to file /home/liudefen/projects/ML4LocalBranch_extend/data/generated_instances/miplib2017_binary/-small/transformedmodel/miplib2017_binary-12_transformed.cip
original problem has 147912 variables (147912 bin, 0 int, 0 impl, 0 cont) and 17039 constraints
-353740.15870000183
-353740.15870000183
original problem has 21600 variables (21600 bin, 0 int, 0 impl, 0 cont) and 4964 constraints
bab5


miplib2017_binary-13
Number of variables 21600
Number of binary variables 21600
* Model status: sollimit
* Solving time: 326.992621
* number of sol :  1
* Model status: sollimit
* Solving time: 254.829867
* number of sol :  2
wrote problem to file /home/liudefen/projects/ML4LocalBranch_extend/data/generated_instances/miplib2017_binary/-small/transformedmodel/miplib2017_binary-13_transformed.cip
original problem has 21600 variables (21600 bin, 0 int, 0 impl, 0 cont) and 5249 constraints
-103970.62930000006
-103970.62930000006
original problem has 114240 variables (114240 bin, 0 int, 0 impl, 0 cont) and 29904 constraints
bab6


miplib2017_binary-14
Number of variables 114240
Number of binary variables 114240
* Model status: sollimit
* Solving time: 3744.797689
* number of sol :  2
* Model status: sollimit
* Solving time: 4957.911288
* number of sol :  2
wrote problem to file /home/liudefen/projects/ML4LocalBranch_extend/data/generated_instances/miplib2017_binary/-small/transformedmodel/miplib2017_binary-14_transformed.cip
original problem has 114240 variables (114240 bin, 0 int, 0 impl, 0 cont) and 30123 constraints
-279311.748800001
-279311.748800001
WARNING: Coefficient of variable <x1> in constraint <c1> contains infinite value <1.000000e+20>, consider adjusting SCIP infinity.
WARNING: Coefficient of variable <x20> in constraint <c2> contains infinite value <1.000000e+20>, consider adjusting SCIP infinity.
WARNING: Coefficient of variable <x33> in constraint <c3> contains infinite value <1.000000e+20>, consider adjusting SCIP infinity.
WARNING: Coefficient of variable <x40> in constraint <c4> contains infinite value <1.000000e+20>, consider adjusting SCIP infinity.
WARNING: Coefficient of variable <x53> in constraint <c5> contains infinite value <1.000000e+20>, consider adjusting SCIP infinity.
WARNING: Coefficient of variable <x66> in constraint <c6> contains infinite value <1.000000e+20>, consider adjusting SCIP infinity.
WARNING: Coefficient of variable <x79> in constraint <c7> contains infinite value <1.000000e+20>, consider adjusting SCIP infinity.
WARNING: Coefficient of variable <x86> in constraint <c8> contains infinite value <1.000000e+20>, consider adjusting SCIP infinity.
WARNING: Coefficient of variable <x93> in constraint <c9> contains infinite value <1.000000e+20>, consider adjusting SCIP infinity.
WARNING: Coefficient of variable <x112> in constraint <c10> contains infinite value <1.000000e+20>, consider adjusting SCIP infinity.
WARNING: Coefficient of variable <x113> in constraint <c11> contains infinite value <1.000000e+20>, consider adjusting SCIP infinity.
WARNING: Coefficient of variable <x126> in constraint <c12> contains infinite value <1.000000e+20>, consider adjusting SCIP infinity.
WARNING: Coefficient of variable <x133> in constraint <c13> contains infinite value <1.000000e+20>, consider adjusting SCIP infinity.
WARNING: Coefficient of variable <x140> in constraint <c14> contains infinite value <1.000000e+20>, consider adjusting SCIP infinity.
original problem has 5831 variables (5831 bin, 0 int, 0 impl, 0 cont) and 175620 constraints
bley_xl1


miplib2017_binary-15
Number of variables 5831
Number of binary variables 5831
* Model status: timelimit
* Solving time: 7200.006935
* number of sol :  0
* Model status: timelimit
* Solving time: 7200.007316
* number of sol :  0
original problem has 3600 variables (3600 bin, 0 int, 0 impl, 0 cont) and 5614 constraints
bnatt400


miplib2017_binary-15
Number of variables 3600
Number of binary variables 3600
* Model status: sollimit
* Solving time: 310.920057
* number of sol :  1
* Model status: optimal
* Solving time: 247.870102
* number of sol :  1
solution value 1 violates bounds of <t_x1>[-0,0] by 1
original problem has 6000 variables (6000 bin, 0 int, 0 impl, 0 cont) and 2176 constraints
cap6000


miplib2017_binary-15
Number of variables 6000
Number of binary variables 6000
* Model status: sollimit
* Solving time: 0.219054
* number of sol :  1
* Model status: nodelimit
* Solving time: 13.372934
* number of sol :  68
wrote problem to file /home/liudefen/projects/ML4LocalBranch_extend/data/generated_instances/miplib2017_binary/-small/transformedmodel/miplib2017_binary-15_transformed.cip
original problem has 6000 variables (6000 bin, 0 int, 0 impl, 0 cont) and 2171 constraints
-2451186.0
-2451186.0
original problem has 73728 variables (73728 bin, 0 int, 0 impl, 0 cont) and 67583 constraints
chromaticindex1024-7


miplib2017_binary-16
Number of variables 73728
Number of binary variables 73728
* Model status: sollimit
* Solving time: 731.645567
* number of sol :  1
* Model status: nodelimit
* Solving time: 735.715011
* number of sol :  1
wrote problem to file /home/liudefen/projects/ML4LocalBranch_extend/data/generated_instances/miplib2017_binary/-small/transformedmodel/miplib2017_binary-16_transformed.cip
original problem has 73728 variables (73728 bin, 0 int, 0 impl, 0 cont) and 67624 constraints
4.0
4.0
original problem has 9216 variables (9216 bin, 0 int, 0 impl, 0 cont) and 8447 constraints
chromaticindex128-5


miplib2017_binary-17
Number of variables 9216
Number of binary variables 9216
* Model status: sollimit
* Solving time: 4.788462
* number of sol :  1
* Model status: nodelimit
* Solving time: 17.812469
* number of sol :  1
wrote problem to file /home/liudefen/projects/ML4LocalBranch_extend/data/generated_instances/miplib2017_binary/-small/transformedmodel/miplib2017_binary-17_transformed.cip
original problem has 9216 variables (9216 bin, 0 int, 0 impl, 0 cont) and 8455 constraints
4.0
4.0
original problem has 18432 variables (18432 bin, 0 int, 0 impl, 0 cont) and 16895 constraints
chromaticindex256-8


miplib2017_binary-18
Number of variables 18432
Number of binary variables 18432
* Model status: sollimit
* Solving time: 15.689697
* number of sol :  1
* Model status: nodelimit
* Solving time: 33.832271
* number of sol :  1
wrote problem to file /home/liudefen/projects/ML4LocalBranch_extend/data/generated_instances/miplib2017_binary/-small/transformedmodel/miplib2017_binary-18_transformed.cip
original problem has 18432 variables (18432 bin, 0 int, 0 impl, 0 cont) and 16901 constraints
4.0
4.0
original problem has 2304 variables (2304 bin, 0 int, 0 impl, 0 cont) and 2111 constraints
chromaticindex32-8


miplib2017_binary-19
Number of variables 2304
Number of binary variables 2304
* Model status: sollimit
* Solving time: 0.034879
* number of sol :  1
* Model status: optimal
* Solving time: 1.07995
* number of sol :  1
solution value 1 violates bounds of <t_x292_293_3>[-0,0] by 1
original problem has 36864 variables (36864 bin, 0 int, 0 impl, 0 cont) and 33791 constraints
chromaticindex512-7


miplib2017_binary-19
Number of variables 36864
Number of binary variables 36864
* Model status: sollimit
* Solving time: 156.14825
* number of sol :  1
* Model status: nodelimit
* Solving time: 190.645891
* number of sol :  1
wrote problem to file /home/liudefen/projects/ML4LocalBranch_extend/data/generated_instances/miplib2017_binary/-small/transformedmodel/miplib2017_binary-19_transformed.cip
original problem has 36864 variables (36864 bin, 0 int, 0 impl, 0 cont) and 33818 constraints
4.0
4.0
original problem has 48417 variables (48417 bin, 0 int, 0 impl, 0 cont) and 2187 constraints
co-100


miplib2017_binary-20
Number of variables 48417
Number of binary variables 48417
* Model status: sollimit
* Solving time: 10.254294
* number of sol :  1
* Model status: nodelimit
* Solving time: 519.569125
* number of sol :  4
wrote problem to file /home/liudefen/projects/ML4LocalBranch_extend/data/generated_instances/miplib2017_binary/-small/transformedmodel/miplib2017_binary-20_transformed.cip
original problem has 48417 variables (48417 bin, 0 int, 0 impl, 0 cont) and 1889 constraints
1179776113.0317252
1179776113.0317252
original problem has 1024 variables (1024 bin, 0 int, 0 impl, 0 cont) and 1024 constraints
cod105


miplib2017_binary-21
Number of variables 1024
Number of binary variables 1024
* Model status: sollimit
* Solving time: 0.11165699999999999
* number of sol :  1
* Model status: nodelimit
* Solving time: 246.468562
* number of sol :  16
wrote problem to file /home/liudefen/projects/ML4LocalBranch_extend/data/generated_instances/miplib2017_binary/-small/transformedmodel/miplib2017_binary-21_transformed.cip
original problem has 1024 variables (1024 bin, 0 int, 0 impl, 0 cont) and 1024 constraints
-8.0
-8.0
original problem has 15293 variables (15284 bin, 0 int, 0 impl, 9 cont) and 2539 constraints
core2536-691


miplib2017_binary-22
Number of variables 15293
Number of binary variables 15284
* Model status: sollimit
* Solving time: 19.521825
* number of sol :  1
* Model status: nodelimit
* Solving time: 50.235502
* number of sol :  4
wrote problem to file /home/liudefen/projects/ML4LocalBranch_extend/data/generated_instances/miplib2017_binary/-small/transformedmodel/miplib2017_binary-22_transformed.cip
original problem has 15293 variables (15284 bin, 0 int, 0 impl, 9 cont) and 2505 constraints
766.0
766.0
original problem has 1864 variables (1864 bin, 0 int, 0 impl, 0 cont) and 2398 constraints
cvs08r139-94


miplib2017_binary-23
Number of variables 1864
Number of binary variables 1864
* Model status: sollimit
* Solving time: 0.027282999999999998
* number of sol :  1
* Model status: nodelimit
* Solving time: 24.939175
* number of sol :  19
wrote problem to file /home/liudefen/projects/ML4LocalBranch_extend/data/generated_instances/miplib2017_binary/-small/transformedmodel/miplib2017_binary-23_transformed.cip
original problem has 1864 variables (1864 bin, 0 int, 0 impl, 0 cont) and 2398 constraints
-102.0
-102.0
original problem has 2848 variables (2848 bin, 0 int, 0 impl, 0 cont) and 3608 constraints
cvs16r106-72


miplib2017_binary-24
Number of variables 2848
Number of binary variables 2848
* Model status: sollimit
* Solving time: 0.053625
* number of sol :  1
* Model status: nodelimit
* Solving time: 11.461448
* number of sol :  7
wrote problem to file /home/liudefen/projects/ML4LocalBranch_extend/data/generated_instances/miplib2017_binary/-small/transformedmodel/miplib2017_binary-24_transformed.cip
original problem has 2848 variables (2848 bin, 0 int, 0 impl, 0 cont) and 3608 constraints
-43.0
-43.0
original problem has 3472 variables (3472 bin, 0 int, 0 impl, 0 cont) and 4633 constraints
cvs16r128-89


miplib2017_binary-25
Number of variables 3472
Number of binary variables 3472
* Model status: sollimit
* Solving time: 0.065298
* number of sol :  1
* Model status: nodelimit
* Solving time: 34.92219
* number of sol :  11
wrote problem to file /home/liudefen/projects/ML4LocalBranch_extend/data/generated_instances/miplib2017_binary/-small/transformedmodel/miplib2017_binary-25_transformed.cip
original problem has 3472 variables (3472 bin, 0 int, 0 impl, 0 cont) and 4633 constraints
-84.0
-84.0
original problem has 2112 variables (2112 bin, 0 int, 0 impl, 0 cont) and 3278 constraints
cvs16r70-62


miplib2017_binary-26
Number of variables 2112
Number of binary variables 2112
* Model status: sollimit
* Solving time: 0.033046
* number of sol :  1
* Model status: nodelimit
* Solving time: 37.866168
* number of sol :  22
wrote problem to file /home/liudefen/projects/ML4LocalBranch_extend/data/generated_instances/miplib2017_binary/-small/transformedmodel/miplib2017_binary-26_transformed.cip
original problem has 2112 variables (2112 bin, 0 int, 0 impl, 0 cont) and 3278 constraints
-35.0
-35.0
original problem has 2384 variables (2384 bin, 0 int, 0 impl, 0 cont) and 3068 constraints
cvs16r89-60


miplib2017_binary-27
Number of variables 2384
Number of binary variables 2384
* Model status: sollimit
* Solving time: 0.037675
* number of sol :  1
* Model status: nodelimit
* Solving time: 41.588209
* number of sol :  19
wrote problem to file /home/liudefen/projects/ML4LocalBranch_extend/data/generated_instances/miplib2017_binary/-small/transformedmodel/miplib2017_binary-27_transformed.cip
original problem has 2384 variables (2384 bin, 0 int, 0 impl, 0 cont) and 3068 constraints
-33.0
-33.0
original problem has 10735 variables (10735 bin, 0 int, 0 impl, 0 cont) and 8357 constraints
decomp1


miplib2017_binary-28
Number of variables 10735
Number of binary variables 10735
* Model status: sollimit
* Solving time: 22.871382
* number of sol :  1
* Model status: optimal
* Solving time: 41.428222
* number of sol :  1
original problem has 14387 variables (14387 bin, 0 int, 0 impl, 0 cont) and 10765 constraints
decomp2


miplib2017_binary-28
Number of variables 14387
Number of binary variables 14387
* Model status: sollimit
* Solving time: 75.239099
* number of sol :  1
* Model status: optimal
* Solving time: 22.696436
* number of sol :  1
original problem has 10000 variables (10000 bin, 0 int, 0 impl, 0 cont) and 399 constraints
disctom


miplib2017_binary-28
Number of variables 10000
Number of binary variables 10000
* Model status: optimal
* Solving time: 17.760826
* number of sol :  1
* Model status: optimal
* Solving time: 17.807861
* number of sol :  1
original problem has 67732 variables (67732 bin, 0 int, 0 impl, 0 cont) and 656 constraints
ds


miplib2017_binary-28
Number of variables 67732
Number of binary variables 67732
* Model status: sollimit
* Solving time: 1.649792
* number of sol :  1
* Model status: nodelimit
* Solving time: 121.928671
* number of sol :  1
wrote problem to file /home/liudefen/projects/ML4LocalBranch_extend/data/generated_instances/miplib2017_binary/-small/transformedmodel/miplib2017_binary-28_transformed.cip
original problem has 67732 variables (67732 bin, 0 int, 0 impl, 0 cont) and 656 constraints
579495.0
579495.0
original problem has 4516 variables (4516 bin, 0 int, 0 impl, 0 cont) and 32 constraints
eil33-2


miplib2017_binary-29
Number of variables 4516
Number of binary variables 4516
* Model status: sollimit
* Solving time: 0.08309
* number of sol :  1
* Model status: nodelimit
* Solving time: 2.341171
* number of sol :  2
wrote problem to file /home/liudefen/projects/ML4LocalBranch_extend/data/generated_instances/miplib2017_binary/-small/transformedmodel/miplib2017_binary-29_transformed.cip
original problem has 4516 variables (4516 bin, 0 int, 0 impl, 0 cont) and 32 constraints
1295.807734
1295.807734
original problem has 65832 variables (65832 bin, 0 int, 0 impl, 0 cont) and 100 constraints
eilA101-2


miplib2017_binary-30
Number of variables 65832
Number of binary variables 65832
* Model status: sollimit
* Solving time: 2.451556
* number of sol :  1
* Model status: nodelimit
* Solving time: 135.159987
* number of sol :  2
wrote problem to file /home/liudefen/projects/ML4LocalBranch_extend/data/generated_instances/miplib2017_binary/-small/transformedmodel/miplib2017_binary-30_transformed.cip
original problem has 65832 variables (65832 bin, 0 int, 0 impl, 0 cont) and 100 constraints
2763.155277
2763.155277
original problem has 28599 variables (28599 bin, 0 int, 0 impl, 0 cont) and 75 constraints
eilC76-2


miplib2017_binary-31
Number of variables 28599
Number of binary variables 28599
* Model status: sollimit
* Solving time: 0.866475
* number of sol :  1
* Model status: nodelimit
* Solving time: 29.155037
* number of sol :  2
wrote problem to file /home/liudefen/projects/ML4LocalBranch_extend/data/generated_instances/miplib2017_binary/-small/transformedmodel/miplib2017_binary-31_transformed.cip
original problem has 28599 variables (28599 bin, 0 int, 0 impl, 0 cont) and 75 constraints
2201.9655979999998
2201.9655979999998
original problem has 17680 variables (0 bin, 17680 int, 0 impl, 0 cont) and 69608 constraints
ex10


miplib2017_binary-32
Number of variables 17680
Number of binary variables 0
* Model status: timelimit
* Solving time: 7201.489035
* number of sol :  0
* Model status: timelimit
* Solving time: 7200.019273
* number of sol :  0
original problem has 10404 variables (0 bin, 10404 int, 0 impl, 0 cont) and 40962 constraints
ex9


miplib2017_binary-32
Number of variables 10404
Number of binary variables 0
* Model status: timelimit
* Solving time: 7200.189891
* number of sol :  0
* Model status: timelimit
* Solving time: 7206.220529
* number of sol :  0
original problem has 1600 variables (1600 bin, 0 int, 0 impl, 0 cont) and 20 constraints
f2gap201600


miplib2017_binary-32
Number of variables 1600
Number of binary variables 1600
* Model status: sollimit
* Solving time: 0.006344
* number of sol :  1
* Model status: optimal
* Solving time: 0.35350499999999996
* number of sol :  1
original problem has 1600 variables (1600 bin, 0 int, 0 impl, 0 cont) and 40 constraints
f2gap401600


miplib2017_binary-32
Number of variables 1600
Number of binary variables 1600
* Model status: sollimit
* Solving time: 0.005745999999999999
* number of sol :  1
* Model status: optimal
* Solving time: 0.411363
* number of sol :  1
original problem has 400 variables (400 bin, 0 int, 0 impl, 0 cont) and 40 constraints
f2gap40400


miplib2017_binary-32
Number of variables 400
Number of binary variables 400
* Model status: sollimit
* Solving time: 0.001619
* number of sol :  1
* Model status: optimal
* Solving time: 0.067633
* number of sol :  1
original problem has 1600 variables (1600 bin, 0 int, 0 impl, 0 cont) and 80 constraints
f2gap801600


miplib2017_binary-32
Number of variables 1600
Number of binary variables 1600
* Model status: sollimit
* Solving time: 0.005664
* number of sol :  1
* Model status: optimal
* Solving time: 1.057325
* number of sol :  2
original problem has 63009 variables (63009 bin, 0 int, 0 impl, 0 cont) and 507 constraints
fast0507


miplib2017_binary-32
Number of variables 63009
Number of binary variables 63009
* Model status: sollimit
* Solving time: 1.195922
* number of sol :  1
* Model status: nodelimit
* Solving time: 74.404867
* number of sol :  100
wrote problem to file /home/liudefen/projects/ML4LocalBranch_extend/data/generated_instances/miplib2017_binary/-small/transformedmodel/miplib2017_binary-32_transformed.cip
original problem has 63009 variables (63009 bin, 0 int, 0 impl, 0 cont) and 507 constraints
240.0
240.0
original problem has 214 variables (214 bin, 0 int, 0 impl, 0 cont) and 6119 constraints
glass-sc


miplib2017_binary-33
Number of variables 214
Number of binary variables 214
* Model status: sollimit
* Solving time: 0.024218999999999997
* number of sol :  1
* Model status: nodelimit
* Solving time: 9.514752
* number of sol :  90
wrote problem to file /home/liudefen/projects/ML4LocalBranch_extend/data/generated_instances/miplib2017_binary/-small/transformedmodel/miplib2017_binary-33_transformed.cip
original problem has 214 variables (214 bin, 0 int, 0 impl, 0 cont) and 6119 constraints
32.0
32.0
original problem has 2183 variables (2183 bin, 0 int, 0 impl, 0 cont) and 5587 constraints
graph20-20-1rand


miplib2017_binary-34
Number of variables 2183
Number of binary variables 2183
* Model status: sollimit
* Solving time: 0.085882
* number of sol :  1
* Model status: nodelimit
* Solving time: 24.106595
* number of sol :  3
wrote problem to file /home/liudefen/projects/ML4LocalBranch_extend/data/generated_instances/miplib2017_binary/-small/transformedmodel/miplib2017_binary-34_transformed.cip
Traceback (most recent call last):
  File "initialize_MILPs.py", line 31, in <module>
    mllb.generate_instances_miplib2017_binary()
  File "/home/liudefen/projects/ML4LocalBranch_extend/instance_generation.py", line 537, in generate_instances_miplib2017_binary
    sol = model.readSolFile(rootsol_filename)
  File "src/pyscipopt/scip.pyx", line 4750, in pyscipopt.scip.Model.readProblem
  File "src/pyscipopt/scip.pyx", line 235, in pyscipopt.scip.PY_SCIP_CALL
OSError: SCIP: read error!
